N = 198;
M = 450;
Edge_Start = [1, 1, 2, 3, 3, 4, 5, 6, 7, 8, 9, 9, 10, 11, 11, 13, 14, 15, 16, 17, 18, 19, 20, 21, 22, 23, 23, 24, 25, 25, 26, 27, 27, 28, 29, 29, 30, 31, 31, 32, 33, 34, 35, 35, 37, 37, 38, 39, 40, 40, 41, 42, 42, 43, 44, 45, 46, 46, 48, 48, 49, 50, 51, 52, 54, 54, 55, 56, 56, 57, 58, 58, 60, 61, 61, 62, 63, 63, 65, 66, 67, 67, 68, 69, 70, 71, 72, 73, 75, 76, 77, 77, 78, 79, 80, 80, 81, 82, 83, 84, 85, 86, 88, 88, 89, 90, 90, 92, 92, 93, 94, 95, 96, 97, 98, 98, 100, 101, 103, 103, 105, 106, 107, 107, 108, 109, 109, 110, 111, 111, 112, 113, 113, 114, 115, 115, 116, 117, 118, 120, 120, 121, 122, 122, 123, 124, 125, 126, 127, 128, 129, 130, 130, 131, 132, 132, 133, 134, 135, 136, 136, 137, 138, 138, 140, 143, 143, 144, 145, 145, 147, 148, 149, 150, 151, 151, 153, 154, 155, 155, 156, 157, 157, 158, 159, 160, 160, 161, 162, 162, 163, 164, 164, 165, 166, 166, 167, 168, 168, 169, 170, 170, 171, 172, 173, 174, 174, 176, 176, 178, 178, 181, 182, 183, 184, 186, 187, 189, 190, 191, 193, 194, 195, 196, 197, 2, 20, 3, 4, 22, 5, 24, 7, 8, 9, 10, 28, 11, 12, 30, 32, 15, 16, 17, 36, 19, 38, 21, 41, 23, 24, 43, 25, 26, 45, 27, 28, 47, 29, 30, 49, 31, 32, 51, 33, 53, 35, 36, 55, 38, 57, 39, 59, 41, 60, 42, 43, 62, 44, 45, 46, 47, 66, 49, 68, 50, 51, 52, 72, 55, 74, 56, 57, 76, 58, 59, 78, 61, 62, 81, 63, 64, 83, 85, 67, 68, 87, 69, 70, 71, 72, 73, 74, 95, 77, 78, 97, 79, 99, 81, 100, 82, 83, 84, 85, 86, 87, 89, 108, 90, 91, 110, 93, 112, 94, 114, 96, 116, 98, 99, 118, 101, 102, 104, 123, 106, 107, 108, 127, 109, 110, 129, 111, 112, 131, 113, 114, 133, 115, 116, 135, 117, 118, 119, 121, 140, 122, 123, 142, 124, 144, 126, 127, 128, 148, 130, 131, 150, 132, 133, 152, 134, 135, 136, 137, 156, 138, 139, 158, 141, 144, 163, 145, 146, 165, 167, 149, 150, 151, 152, 171, 154, 155, 156, 175, 157, 158, 177, 159, 179, 161, 180, 162, 163, 182, 164, 165, 184, 166, 167, 186, 168, 169, 188, 170, 171, 190, 172, 192, 174, 175, 194, 177, 196, 179, 198, 182, 183, 184, 185, 187, 188, 190, 191, 192, 194, 195, 196, 197, 198];
Edge_End = [2, 20, 3, 4, 22, 5, 24, 7, 8, 9, 10, 28, 11, 12, 30, 32, 15, 16, 17, 36, 19, 38, 21, 41, 23, 24, 43, 25, 26, 45, 27, 28, 47, 29, 30, 49, 31, 32, 51, 33, 53, 35, 36, 55, 38, 57, 39, 59, 41, 60, 42, 43, 62, 44, 45, 46, 47, 66, 49, 68, 50, 51, 52, 72, 55, 74, 56, 57, 76, 58, 59, 78, 61, 62, 81, 63, 64, 83, 85, 67, 68, 87, 69, 70, 71, 72, 73, 74, 95, 77, 78, 97, 79, 99, 81, 100, 82, 83, 84, 85, 86, 87, 89, 108, 90, 91, 110, 93, 112, 94, 114, 96, 116, 98, 99, 118, 101, 102, 104, 123, 106, 107, 108, 127, 109, 110, 129, 111, 112, 131, 113, 114, 133, 115, 116, 135, 117, 118, 119, 121, 140, 122, 123, 142, 124, 144, 126, 127, 128, 148, 130, 131, 150, 132, 133, 152, 134, 135, 136, 137, 156, 138, 139, 158, 141, 144, 163, 145, 146, 165, 167, 149, 150, 151, 152, 171, 154, 155, 156, 175, 157, 158, 177, 159, 179, 161, 180, 162, 163, 182, 164, 165, 184, 166, 167, 186, 168, 169, 188, 170, 171, 190, 172, 192, 174, 175, 194, 177, 196, 179, 198, 182, 183, 184, 185, 187, 188, 190, 191, 192, 194, 195, 196, 197, 198, 1, 1, 2, 3, 3, 4, 5, 6, 7, 8, 9, 9, 10, 11, 11, 13, 14, 15, 16, 17, 18, 19, 20, 21, 22, 23, 23, 24, 25, 25, 26, 27, 27, 28, 29, 29, 30, 31, 31, 32, 33, 34, 35, 35, 37, 37, 38, 39, 40, 40, 41, 42, 42, 43, 44, 45, 46, 46, 48, 48, 49, 50, 51, 52, 54, 54, 55, 56, 56, 57, 58, 58, 60, 61, 61, 62, 63, 63, 65, 66, 67, 67, 68, 69, 70, 71, 72, 73, 75, 76, 77, 77, 78, 79, 80, 80, 81, 82, 83, 84, 85, 86, 88, 88, 89, 90, 90, 92, 92, 93, 94, 95, 96, 97, 98, 98, 100, 101, 103, 103, 105, 106, 107, 107, 108, 109, 109, 110, 111, 111, 112, 113, 113, 114, 115, 115, 116, 117, 118, 120, 120, 121, 122, 122, 123, 124, 125, 126, 127, 128, 129, 130, 130, 131, 132, 132, 133, 134, 135, 136, 136, 137, 138, 138, 140, 143, 143, 144, 145, 145, 147, 148, 149, 150, 151, 151, 153, 154, 155, 155, 156, 157, 157, 158, 159, 160, 160, 161, 162, 162, 163, 164, 164, 165, 166, 166, 167, 168, 168, 169, 170, 170, 171, 172, 173, 174, 174, 176, 176, 178, 178, 181, 182, 183, 184, 186, 187, 189, 190, 191, 193, 194, 195, 196, 197];
L = [1, 14, 6, 11, 8, 14, 4, 16, 9, 18, 1, 4, 8, 9, 13, 2, 2, 15, 9, 14, 14, 13, 9, 16, 7, 18, 5, 13, 10, 17, 7, 15, 11, 11, 11, 14, 3, 19, 18, 8, 6, 12, 3, 19, 18, 3, 7, 10, 1, 16, 1, 18, 1, 1, 4, 4, 9, 6, 9, 16, 7, 1, 13, 11, 17, 18, 2, 1, 13, 9, 4, 19, 1, 2, 19, 5, 9, 2, 8, 14, 17, 2, 11, 5, 14, 16, 4, 10, 12, 3, 4, 19, 15, 16, 5, 6, 6, 10, 6, 18, 1, 5, 14, 3, 5, 14, 5, 9, 3, 13, 6, 14, 18, 3, 10, 4, 17, 11, 9, 2, 3, 14, 9, 5, 1, 8, 7, 6, 5, 15, 1, 12, 10, 16, 8, 14, 15, 15, 8, 5, 9, 17, 3, 2, 12, 6, 13, 8, 5, 5, 2, 10, 12, 16, 18, 10, 1, 15, 16, 7, 9, 12, 9, 18, 3, 6, 3, 12, 10, 2, 16, 7, 17, 1, 2, 17, 6, 4, 12, 2, 13, 12, 15, 10, 13, 14, 6, 8, 14, 4, 11, 17, 18, 14, 3, 16, 11, 4, 11, 7, 18, 10, 2, 1, 3, 1, 6, 1, 1, 19, 12, 13, 8, 9, 2, 10, 17, 10, 9, 9, 6, 18, 6, 19, 7, 1, 14, 6, 11, 8, 14, 4, 16, 9, 18, 1, 4, 8, 9, 13, 2, 2, 15, 9, 14, 14, 13, 9, 16, 7, 18, 5, 13, 10, 17, 7, 15, 11, 11, 11, 14, 3, 19, 18, 8, 6, 12, 3, 19, 18, 3, 7, 10, 1, 16, 1, 18, 1, 1, 4, 4, 9, 6, 9, 16, 7, 1, 13, 11, 17, 18, 2, 1, 13, 9, 4, 19, 1, 2, 19, 5, 9, 2, 8, 14, 17, 2, 11, 5, 14, 16, 4, 10, 12, 3, 4, 19, 15, 16, 5, 6, 6, 10, 6, 18, 1, 5, 14, 3, 5, 14, 5, 9, 3, 13, 6, 14, 18, 3, 10, 4, 17, 11, 9, 2, 3, 14, 9, 5, 1, 8, 7, 6, 5, 15, 1, 12, 10, 16, 8, 14, 15, 15, 8, 5, 9, 17, 3, 2, 12, 6, 13, 8, 5, 5, 2, 10, 12, 16, 18, 10, 1, 15, 16, 7, 9, 12, 9, 18, 3, 6, 3, 12, 10, 2, 16, 7, 17, 1, 2, 17, 6, 4, 12, 2, 13, 12, 15, 10, 13, 14, 6, 8, 14, 4, 11, 17, 18, 14, 3, 16, 11, 4, 11, 7, 18, 10, 2, 1, 3, 1, 6, 1, 1, 19, 12, 13, 8, 9, 2, 10, 17, 10, 9, 9, 6, 18, 6, 19, 7];
T = [1, 15, 4, 4, 8, 20, 1, 12, 1, 14, 1, 1, 3, 6, 21, 1, 1, 10, 8, 9, 18, 15, 11, 1, 7, 18, 7, 8, 13, 5, 10, 20, 13, 18, 10, 5, 5, 21, 14, 10, 10, 14, 1, 14, 16, 4, 11, 9, 1, 9, 1, 20, 5, 1, 1, 2, 9, 5, 10, 11, 1, 1, 11, 2, 10, 16, 6, 5, 19, 11, 1, 19, 1, 5, 23, 10, 12, 8, 3, 6, 13, 5, 16, 13, 16, 22, 1, 17, 24, 6, 1, 16, 19, 18, 9, 7, 8, 3, 10, 15, 1, 1, 13, 6, 7, 14, 6, 1, 10, 9, 5, 6, 15, 8, 13, 1, 16, 8, 6, 2, 1, 15, 5, 4, 1, 23, 12, 10, 3, 18, 9, 4, 20, 26, 9, 21, 11, 12, 4, 12, 6, 15, 2, 1, 12, 3, 8, 3, 3, 4, 3, 6, 4, 17, 11, 2, 6, 20, 12, 13, 7, 5, 8, 13, 1, 2, 8, 5, 9, 1, 18, 11, 21, 1, 1, 22, 5, 3, 18, 1, 9, 2, 16, 14, 11, 22, 1, 14, 2, 1, 1, 16, 14, 14, 1, 7, 14, 1, 14, 8, 15, 11, 1, 5, 5, 1, 9, 1, 3, 16, 15, 14, 11, 9, 1, 7, 14, 12, 4, 8, 2, 17, 4, 23, 11, 1, 15, 4, 4, 8, 20, 1, 12, 1, 14, 1, 1, 3, 6, 21, 1, 1, 10, 8, 9, 18, 15, 11, 1, 7, 18, 7, 8, 13, 5, 10, 20, 13, 18, 10, 5, 5, 21, 14, 10, 10, 14, 1, 14, 16, 4, 11, 9, 1, 9, 1, 20, 5, 1, 1, 2, 9, 5, 10, 11, 1, 1, 11, 2, 10, 16, 6, 5, 19, 11, 1, 19, 1, 5, 23, 10, 12, 8, 3, 6, 13, 5, 16, 13, 16, 22, 1, 17, 24, 6, 1, 16, 19, 18, 9, 7, 8, 3, 10, 15, 1, 1, 13, 6, 7, 14, 6, 1, 10, 9, 5, 6, 15, 8, 13, 1, 16, 8, 6, 2, 1, 15, 5, 4, 1, 23, 12, 10, 3, 18, 9, 4, 20, 26, 9, 21, 11, 12, 4, 12, 6, 15, 2, 1, 12, 3, 8, 3, 3, 4, 3, 6, 4, 17, 11, 2, 6, 20, 12, 13, 7, 5, 8, 13, 1, 2, 8, 5, 9, 1, 18, 11, 21, 1, 1, 22, 5, 3, 18, 1, 9, 2, 16, 14, 11, 22, 1, 14, 2, 1, 1, 16, 14, 14, 1, 7, 14, 1, 14, 8, 15, 11, 1, 5, 5, 1, 9, 1, 3, 16, 15, 14, 11, 9, 1, 7, 14, 12, 4, 8, 2, 17, 4, 23, 11];
Lower_Bound = [0, 1, 5, 9, 29, 101, 89, 88, 74, 75, 78, 84, 114, 178, 177, 167, 159, 199, 181, 15, 26, 13, 20, 30, 34, 47, 53, 73, 81, 91, 92, 113, 123, 163, 149, 150, 150, 166, 167, 28, 27, 28, 27, 28, 29, 31, 40, 66, 76, 77, 78, 89, 133, 125, 135, 141, 146, 157, 158, 37, 38, 33, 43, 55, 52, 36, 42, 55, 71, 84, 100, 91, 92, 109, 259, 160, 166, 167, 186, 70, 61, 54, 51, 61, 49, 48, 47, 301, 288, 281, 295, 264, 263, 254, 235, 229, 182, 190, 203, 77, 93, 101, 382, 388, 320, 319, 304, 299, 298, 275, 265, 262, 253, 249, 223, 214, 203, 191, 195, 409, 397, 382, 380, 368, 319, 311, 308, 311, 292, 289, 283, 281, 270, 264, 244, 256, 269, 274, 282, 415, 416, 383, 367, 365, 360, 369, 362, 315, 306, 285, 284, 283, 289, 284, 281, 263, 272, 274, 288, 413, 391, 377, 375, 375, 359, 345, 344, 330, 329, 321, 306, 307, 288, 283, 282, 289, 288, 315, 299, 414, 392, 378, 389, 389, 390, 352, 358, 344, 336, 324, 320, 312, 294, 292, 296, 292, 315, 326];
Upper_Bound = [0, 1, 5, 9, 29, 101, 89, 88, 74, 75, 78, 84, 114, 178, 177, 167, 159, 199, 181, 15, 26, 13, 20, 30, 34, 47, 53, 73, 81, 91, 92, 113, 123, 163, 149, 150, 150, 166, 167, 28, 27, 28, 27, 28, 29, 31, 40, 66, 76, 77, 78, 89, 133, 125, 135, 141, 146, 157, 158, 37, 38, 33, 43, 55, 52, 36, 42, 55, 71, 84, 100, 91, 92, 109, 259, 160, 166, 167, 186, 70, 61, 54, 51, 61, 49, 48, 47, 301, 288, 281, 295, 264, 263, 254, 235, 229, 182, 190, 203, 77, 93, 101, 382, 388, 320, 319, 304, 299, 298, 275, 265, 262, 253, 249, 223, 214, 203, 191, 195, 409, 397, 382, 380, 368, 319, 311, 308, 311, 292, 289, 283, 281, 270, 264, 244, 256, 269, 274, 282, 415, 416, 383, 367, 365, 360, 369, 362, 315, 306, 285, 284, 283, 289, 284, 281, 263, 272, 274, 288, 413, 391, 377, 375, 375, 359, 345, 344, 330, 329, 321, 306, 307, 288, 283, 282, 289, 288, 315, 299, 414, 392, 378, 389, 389, 390, 352, 358, 344, 336, 324, 320, 312, 294, 292, 296, 292, 315, 326];
Start = 1;
End = 198;
Time = 326;
